NAME : single.3065.tour
COMMENT : Length = 3065
COMMENT : Found by LKH [Keld Helsgaun] Fri Dec 15 15:52:48 2023
TYPE : TOUR
DIMENSION : 28
TOUR_SECTION
1
25
27
28
26
24
23
22
21
20
15
14
17
19
18
11
10
9
3
2
8
7
6
5
4
13
12
16
-1
EOF
